phase2/problem_log/problem463.sol
# Solution for model Resale_Solver
# Objective value = 10
list[0] 0
list[1] 0
list[2] 0
list[3] 0
indicator[0] 2e+09
indicator[1] 2e+09
indicator[2] 2e+09
indicator[3] 2e+09
